Minimize
  - 4 y_0 - 3 y_1 - 5 y_2 - 5 y_3 - 4 y_4 - 4 y_5 - 5 y_6 - 2 y_7 - 3 y_8
   - 5 y_9 - 4 y_10 - 5 y_11 - 5 y_12 - 4 y_13 - 5 y_14 - y_15 - 4 y_16
   - 4 y_17 - y_18 - 3 y_19 - 5 y_20 - 4 y_21 - 4 y_22 - 4 y_23 - 4 y_24
   - 4 y_25 - 6 y_26 - 4 y_27 - 3 y_28 - 2 y_29 - y_30 - 2 y_31 - 4 y_32
   - 5 y_33 - 5 y_34 - 2 y_35 - 4 y_36 - 4 y_37 - 2 y_38 - 6 y_39 - 3 y_40
   - 2 y_41 - 5 y_42 - 6 y_43 - 2 y_44 - 4 y_45 - 5 y_46 - y_47 - 2 y_48
   - 4 y_49 - 4 y_50 - 5 y_51 - 5 y_52 - 4 y_53 - 4 y_54 - y_55 - 2 y_57
   - 6 y_58 - 4 y_59 - 5 y_60 - 4 y_61 - y_62 - 2 y_63 - 6 y_64 - 4 y_65
   - 3 y_66 - 5 y_67 - 5 y_68 - 2 y_69 - 2 y_70 - y_71 - 2 y_72 - 4 y_73
   - 5 y_74 - 2 y_75 - 4 y_76 - 4 y_77 - y_78 - 5 y_79 - 3 y_80 - 3 y_81
   - 4 y_82 - 6 y_83 - 4 y_84 - 5 y_85 - 3 y_86 - 5 y_87 - 5 y_88 - 3 y_89
   - 6 y_90 - 2 y_91 - 4 y_92 - 4 y_93 - 2 y_94 - 3 y_95 - 4 y_96 - 6 y_97
   - 4 y_98 - 5 y_99 + 368 Constant
Subject To
 c_0: y_14 = 1
 c_1_0: y_0 + y_1 + y_10 + y_17 + y_19 + y_40 + y_61 + y_65 + y_74 + y_80
   + y_82 + y_84 + y_86 >= 1
 c_1_1: y_0 + y_1 + y_10 + y_15 + y_17 + y_18 + y_19 + y_40 + y_41 + y_61
   + y_62 + y_63 + y_65 + y_70 + y_71 + y_75 + y_78 + y_80 + y_82 + y_84
   + y_86 >= 1
 c_1_2: y_2 + y_5 + y_27 + y_28 + y_39 + y_43 + y_76 + y_88 + y_92 + y_95
   >= 1
 c_1_3: y_3 + y_9 + y_11 + y_16 + y_25 + y_45 + y_46 + y_49 + y_85 + y_93
   + y_97 + y_99 >= 1
 c_1_4: y_4 + y_19 + y_21 + y_33 + y_51 + y_61 + y_65 + y_68 + y_80 + y_81
   + y_82 + y_84 >= 1
 c_1_5: y_2 + y_5 + y_7 + y_27 + y_28 + y_31 + y_38 + y_66 + y_72 + y_76
   + y_88 + y_92 + y_95 >= 1
 c_1_6: y_6 + y_14 + y_34 + y_36 + y_59 + y_67 >= 1
 c_1_7: y_5 + y_7 + y_28 + y_30 + y_31 + y_38 + y_47 + y_48 + y_55 + y_56
   + y_66 + y_72 + y_89 + y_94 + y_95 >= 1
 c_1_8: y_8 + y_15 + y_18 + y_25 + y_36 + y_44 + y_45 + y_49 + y_57 + y_59
   + y_63 + y_69 + y_75 + y_91 >= 1
 c_1_9: y_3 + y_9 + y_10 + y_11 + y_16 + y_17 + y_25 + y_45 + y_46 + y_49
   + y_85 + y_93 + y_99 >= 1
 c_1_10: y_0 + y_1 + y_9 + y_10 + y_11 + y_16 + y_17 + y_19 + y_40 + y_45
   + y_63 + y_70 + y_75 + y_84 + y_85 + y_86 + y_93 >= 1
 c_1_11: y_3 + y_9 + y_10 + y_11 + y_16 + y_17 + y_25 + y_45 + y_46 + y_49
   + y_85 + y_93 + y_99 >= 1
 c_1_12: y_12 + y_32 + y_39 + y_43 + y_52 + y_66 + y_89 + y_92 + y_96 >= 1
 c_1_13: y_13 + y_32 + y_89 + y_96 + y_98 >= 1
 c_1_14: y_6 + y_14 + y_34 + y_36 + y_59 + y_67 >= 1
 c_1_15: y_1 + y_8 + y_15 + y_18 + y_30 + y_41 + y_44 + y_55 + y_56 + y_57
   + y_62 + y_63 + y_69 + y_70 + y_71 + y_75 + y_78 + y_86 + y_91 >= 1
 c_1_16: y_3 + y_9 + y_10 + y_11 + y_16 + y_17 + y_40 + y_45 + y_46 + y_85
   + y_86 + y_93 >= 1
 c_1_17: y_0 + y_1 + y_9 + y_10 + y_11 + y_16 + y_17 + y_19 + y_40 + y_45
   + y_74 + y_84 + y_85 + y_86 + y_93 >= 1
 c_1_18: y_1 + y_8 + y_15 + y_18 + y_30 + y_40 + y_41 + y_44 + y_55 + y_56
   + y_57 + y_62 + y_63 + y_69 + y_70 + y_71 + y_75 + y_78 + y_86 + y_91
   >= 1
 c_1_19: y_0 + y_1 + y_4 + y_10 + y_17 + y_19 + y_21 + y_40 + y_41 + y_61
   + y_65 + y_74 + y_80 + y_82 + y_84 + y_86 >= 1
 c_1_20: y_20 + y_23 + y_26 + y_42 + y_50 + y_53 + y_58 + y_60 + y_64
   + y_79 >= 1
 c_1_21: y_4 + y_19 + y_21 + y_33 + y_51 + y_61 + y_65 + y_68 + y_80 + y_81
   + y_82 >= 1
 c_1_22: y_22 + y_29 + y_33 + y_35 + y_37 + y_51 + y_81 + y_87 >= 1
 c_1_23: y_20 + y_23 + y_24 + y_42 + y_50 + y_53 + y_54 + y_60 + y_73
   + y_77 + y_79 >= 1
 c_1_24: y_23 + y_24 + y_29 + y_35 + y_42 + y_50 + y_53 + y_54 + y_60
   + y_73 + y_77 + y_79 >= 1
 c_1_25: y_3 + y_8 + y_9 + y_11 + y_25 + y_34 + y_45 + y_46 + y_49 + y_59
   + y_67 + y_85 + y_93 + y_97 + y_99 >= 1
 c_1_26: y_20 + y_26 + y_42 + y_58 + y_60 + y_64 + y_79 >= 1
 c_1_27: y_2 + y_5 + y_27 + y_28 + y_76 + y_88 + y_95 >= 1
 c_1_28: y_2 + y_5 + y_7 + y_27 + y_28 + y_31 + y_38 + y_48 + y_66 + y_72
   + y_76 + y_88 + y_89 + y_92 + y_94 + y_95 >= 1
 c_1_29: y_22 + y_24 + y_29 + y_35 + y_37 + y_47 + y_50 + y_53 + y_81 >= 1
 c_1_30: y_7 + y_15 + y_18 + y_30 + y_31 + y_38 + y_47 + y_48 + y_55 + y_56
   + y_69 + y_71 + y_72 + y_78 + y_89 + y_94 >= 1
 c_1_31: y_5 + y_7 + y_28 + y_30 + y_31 + y_38 + y_48 + y_55 + y_66 + y_72
   + y_76 + y_92 + y_94 + y_95 >= 1
 c_1_32: y_12 + y_13 + y_32 + y_89 + y_96 + y_98 >= 1
 c_1_33: y_4 + y_21 + y_22 + y_33 + y_51 + y_68 + y_81 + y_87 >= 1
 c_1_34: y_6 + y_14 + y_25 + y_34 + y_36 + y_49 + y_59 + y_67 + y_99 >= 1
 c_1_35: y_22 + y_24 + y_29 + y_35 + y_37 + y_47 + y_53 + y_62 + y_81 >= 1
 c_1_36: y_6 + y_8 + y_14 + y_34 + y_36 + y_44 + y_57 + y_59 + y_67 + y_69
   + y_91 + y_98 >= 1
 c_1_37: y_22 + y_29 + y_35 + y_37 + y_51 + y_81 + y_87 >= 1
 c_1_38: y_5 + y_7 + y_28 + y_30 + y_31 + y_38 + y_48 + y_55 + y_56 + y_66
   + y_72 + y_89 + y_92 + y_94 + y_95 >= 1
 c_1_39: y_2 + y_12 + y_39 + y_43 + y_52 + y_88 + y_90 >= 1
 c_1_40: y_0 + y_1 + y_10 + y_16 + y_17 + y_18 + y_19 + y_40 + y_41 + y_61
   + y_63 + y_65 + y_70 + y_75 + y_78 + y_80 + y_82 + y_84 + y_86 + y_93
   >= 1
 c_1_41: y_1 + y_15 + y_18 + y_19 + y_40 + y_41 + y_56 + y_62 + y_63 + y_70
   + y_71 + y_75 + y_78 + y_80 + y_86 >= 1
 c_1_42: y_20 + y_23 + y_24 + y_26 + y_42 + y_50 + y_53 + y_58 + y_60
   + y_64 + y_73 + y_77 + y_79 >= 1
 c_1_43: y_2 + y_12 + y_39 + y_43 + y_52 + y_88 + y_90 + y_92 >= 1
 c_1_44: y_8 + y_15 + y_18 + y_36 + y_44 + y_57 + y_63 + y_69 + y_71 + y_75
   + y_91 + y_98 >= 1
 c_1_45: y_3 + y_8 + y_9 + y_10 + y_11 + y_16 + y_17 + y_25 + y_45 + y_46
   + y_49 + y_57 + y_59 + y_63 + y_75 + y_85 + y_86 + y_91 + y_93 + y_99
   >= 1
 c_1_46: y_3 + y_9 + y_11 + y_16 + y_25 + y_45 + y_46 + y_49 + y_85 + y_93
   + y_97 + y_99 >= 1
 c_1_47: y_7 + y_29 + y_30 + y_35 + y_47 + y_55 + y_56 + y_62 + y_71 + y_81
   >= 1
 c_1_48: y_7 + y_28 + y_30 + y_31 + y_38 + y_48 + y_55 + y_56 + y_66 + y_69
   + y_72 + y_89 + y_92 + y_94 >= 1
 c_1_49: y_3 + y_8 + y_9 + y_11 + y_25 + y_34 + y_45 + y_46 + y_49 + y_59
   + y_67 + y_85 + y_93 + y_97 + y_99 >= 1
 c_1_50: y_20 + y_23 + y_24 + y_29 + y_42 + y_50 + y_53 + y_58 + y_60
   + y_64 + y_73 + y_77 + y_79 >= 1
 c_1_51: y_4 + y_21 + y_22 + y_33 + y_37 + y_51 + y_81 + y_87 >= 1
 c_1_52: y_12 + y_39 + y_43 + y_52 + y_66 + y_90 + y_92 + y_96 >= 1
 c_1_53: y_20 + y_23 + y_24 + y_29 + y_35 + y_42 + y_50 + y_53 + y_54
   + y_58 + y_60 + y_64 + y_73 + y_77 + y_79 >= 1
 c_1_54: y_23 + y_24 + y_53 + y_54 + y_60 + y_73 + y_76 + y_77 >= 1
 c_1_55: y_7 + y_15 + y_18 + y_30 + y_31 + y_38 + y_47 + y_48 + y_55 + y_56
   + y_62 + y_71 + y_72 + y_78 + y_94 >= 1
 c_1_56: y_7 + y_15 + y_18 + y_30 + y_38 + y_41 + y_47 + y_48 + y_55 + y_56
   + y_62 + y_63 + y_70 + y_71 + y_75 + y_78 >= 1
 c_1_57: y_8 + y_15 + y_18 + y_36 + y_44 + y_45 + y_57 + y_63 + y_69 + y_70
   + y_71 + y_75 + y_78 + y_86 + y_91 >= 1
 c_1_58: y_20 + y_26 + y_42 + y_50 + y_53 + y_58 + y_60 + y_64 + y_79 >= 1
 c_1_59: y_6 + y_8 + y_14 + y_25 + y_34 + y_36 + y_45 + y_49 + y_59 + y_67
   + y_91 + y_99 >= 1
 c_1_60: y_20 + y_23 + y_24 + y_26 + y_42 + y_50 + y_53 + y_54 + y_58
   + y_60 + y_64 + y_73 + y_77 + y_79 >= 1
 c_1_61: y_0 + y_1 + y_4 + y_19 + y_21 + y_40 + y_61 + y_65 + y_68 + y_74
   + y_80 + y_82 + y_84 >= 1
 c_1_62: y_1 + y_15 + y_18 + y_35 + y_41 + y_47 + y_55 + y_56 + y_62 + y_70
   + y_71 + y_78 + y_80 + y_81 >= 1
 c_1_63: y_1 + y_8 + y_10 + y_15 + y_18 + y_40 + y_41 + y_44 + y_45 + y_56
   + y_57 + y_63 + y_70 + y_71 + y_75 + y_78 + y_86 + y_91 + y_93 >= 1
 c_1_64: y_20 + y_26 + y_42 + y_50 + y_53 + y_58 + y_60 + y_64 + y_73
   + y_79 >= 1
 c_1_65: y_0 + y_1 + y_4 + y_19 + y_21 + y_40 + y_61 + y_65 + y_68 + y_74
   + y_80 + y_82 + y_84 >= 1
 c_1_66: y_5 + y_7 + y_12 + y_28 + y_31 + y_38 + y_48 + y_52 + y_66 + y_72
   + y_89 + y_92 + y_94 + y_95 + y_96 >= 1
 c_1_67: y_6 + y_14 + y_25 + y_34 + y_36 + y_49 + y_59 + y_67 + y_97 + y_99
   >= 1
 c_1_68: y_4 + y_21 + y_33 + y_61 + y_65 + y_68 + y_82 >= 1
 c_1_69: y_8 + y_15 + y_18 + y_30 + y_36 + y_44 + y_48 + y_57 + y_69 + y_75
   + y_89 + y_91 + y_94 + y_98 >= 1
 c_1_70: y_1 + y_10 + y_15 + y_18 + y_40 + y_41 + y_56 + y_57 + y_62 + y_63
   + y_70 + y_71 + y_75 + y_78 + y_86 + y_91 >= 1
 c_1_71: y_1 + y_15 + y_18 + y_30 + y_41 + y_44 + y_47 + y_55 + y_56 + y_57
   + y_62 + y_63 + y_70 + y_71 + y_75 + y_78 + y_86 + y_91 >= 1
 c_1_72: y_5 + y_7 + y_28 + y_30 + y_31 + y_38 + y_48 + y_55 + y_66 + y_72
   + y_76 + y_94 + y_95 >= 1
 c_1_73: y_23 + y_24 + y_42 + y_50 + y_53 + y_54 + y_60 + y_64 + y_73
   + y_77 + y_79 >= 1
 c_1_74: y_0 + y_17 + y_19 + y_61 + y_65 + y_74 + y_82 + y_83 + y_84 >= 1
 c_1_75: y_1 + y_8 + y_10 + y_15 + y_18 + y_40 + y_41 + y_44 + y_45 + y_56
   + y_57 + y_63 + y_69 + y_70 + y_71 + y_75 + y_78 + y_86 + y_91 >= 1
 c_1_76: y_2 + y_5 + y_27 + y_28 + y_31 + y_54 + y_72 + y_76 + y_88 + y_95
   >= 1
 c_1_77: y_23 + y_24 + y_42 + y_50 + y_53 + y_54 + y_60 + y_73 + y_77
   + y_79 >= 1
 c_1_78: y_1 + y_15 + y_18 + y_30 + y_40 + y_41 + y_55 + y_56 + y_57 + y_62
   + y_63 + y_70 + y_71 + y_75 + y_78 + y_86 + y_91 >= 1
 c_1_79: y_20 + y_23 + y_24 + y_26 + y_42 + y_50 + y_53 + y_58 + y_60
   + y_64 + y_73 + y_77 + y_79 >= 1
 c_1_80: y_0 + y_1 + y_4 + y_19 + y_21 + y_40 + y_41 + y_61 + y_62 + y_65
   + y_80 + y_81 + y_82 + y_84 >= 1
 c_1_81: y_4 + y_21 + y_22 + y_29 + y_33 + y_35 + y_37 + y_47 + y_51 + y_62
   + y_80 + y_81 + y_87 >= 1
 c_1_82: y_0 + y_1 + y_4 + y_19 + y_21 + y_40 + y_61 + y_65 + y_68 + y_74
   + y_80 + y_82 + y_84 >= 1
 c_1_83: y_74 + y_83 >= 1
 c_1_84: y_0 + y_1 + y_4 + y_10 + y_17 + y_19 + y_40 + y_61 + y_65 + y_74
   + y_80 + y_82 + y_84 >= 1
 c_1_85: y_3 + y_9 + y_10 + y_11 + y_16 + y_17 + y_25 + y_45 + y_46 + y_49
   + y_85 + y_93 >= 1
 c_1_86: y_0 + y_1 + y_10 + y_15 + y_16 + y_17 + y_18 + y_19 + y_40 + y_41
   + y_45 + y_57 + y_63 + y_70 + y_71 + y_75 + y_78 + y_86 + y_91 + y_93
   >= 1
 c_1_87: y_22 + y_33 + y_37 + y_51 + y_81 + y_87 >= 1
 c_1_88: y_2 + y_5 + y_27 + y_28 + y_39 + y_43 + y_76 + y_88 + y_92 + y_95
   >= 1
 c_1_89: y_7 + y_12 + y_13 + y_28 + y_30 + y_32 + y_38 + y_48 + y_66 + y_69
   + y_89 + y_92 + y_94 + y_96 + y_98 >= 1
 c_1_90: y_39 + y_43 + y_52 + y_90 >= 1
 c_1_91: y_8 + y_15 + y_18 + y_36 + y_44 + y_45 + y_57 + y_59 + y_63 + y_69
   + y_70 + y_71 + y_75 + y_78 + y_86 + y_91 >= 1
 c_1_92: y_2 + y_5 + y_12 + y_28 + y_31 + y_38 + y_43 + y_48 + y_52 + y_66
   + y_88 + y_89 + y_92 + y_94 + y_95 >= 1
 c_1_93: y_3 + y_9 + y_10 + y_11 + y_16 + y_17 + y_25 + y_40 + y_45 + y_46
   + y_49 + y_63 + y_85 + y_86 + y_93 >= 1
 c_1_94: y_7 + y_28 + y_30 + y_31 + y_38 + y_48 + y_55 + y_66 + y_69 + y_72
   + y_89 + y_92 + y_94 + y_96 >= 1
 c_1_95: y_2 + y_5 + y_7 + y_27 + y_28 + y_31 + y_38 + y_66 + y_72 + y_76
   + y_88 + y_92 + y_95 >= 1
 c_1_96: y_12 + y_13 + y_32 + y_52 + y_66 + y_89 + y_94 + y_96 + y_98 >= 1
 c_1_97: y_3 + y_25 + y_46 + y_49 + y_67 + y_97 + y_99 >= 1
 c_1_98: y_13 + y_32 + y_36 + y_44 + y_69 + y_89 + y_96 + y_98 >= 1
 c_1_99: y_3 + y_9 + y_11 + y_25 + y_34 + y_45 + y_46 + y_49 + y_59 + y_67
   + y_97 + y_99 >= 1
Bounds
 Constant = 1
Binaries
 y_0 y_1 y_2 y_3 y_4 y_5 y_6 y_7 y_8 y_9 y_10 y_11 y_12 y_13 y_14 y_15 y_16
 y_17 y_18 y_19 y_20 y_21 y_22 y_23 y_24 y_25 y_26 y_27 y_28 y_29 y_30 y_31
 y_32 y_33 y_34 y_35 y_36 y_37 y_38 y_39 y_40 y_41 y_42 y_43 y_44 y_45 y_46
 y_47 y_48 y_49 y_50 y_51 y_52 y_53 y_54 y_55 y_56 y_57 y_58 y_59 y_60 y_61
 y_62 y_63 y_64 y_65 y_66 y_67 y_68 y_69 y_70 y_71 y_72 y_73 y_74 y_75 y_76
 y_77 y_78 y_79 y_80 y_81 y_82 y_83 y_84 y_85 y_86 y_87 y_88 y_89 y_90 y_91
 y_92 y_93 y_94 y_95 y_96 y_97 y_98 y_99
End
